913 1
540 2
518 3
515 4
517 5
517 6
519 7
538 8
521 9
515 10
522 11
516 12
524 13
527 14
544 15
545 16
513 17
518 18
515 19
520 20
535 21
518 22
544 23
537 24
520 25
542 26
520 27
527 28
520 29
541 30
515 31
527 32
